c description: There is a graph of 6 vertices with a 4-clique and a 4-coloring
c generator: CNFgen (0.9.0)
c copyright: (C) 2012-2020 Massimo Lauria <massimo.lauria@uniroma1.it>
c url: https://massimolauria.net/cnfgen
c
p cnf 63 382
-16 -17 0
-16 -18 0
-16 -19 0
-16 -20 0
-16 -21 0
-17 -18 0
-17 -19 0
-17 -20 0
-17 -21 0
-18 -19 0
-18 -20 0
-18 -21 0
-19 -20 0
-19 -21 0
-20 -21 0
16 17 18 19 20 21 0
-22 -23 0
-22 -24 0
-22 -25 0
-22 -26 0
-22 -27 0
-23 -24 0
-23 -25 0
-23 -26 0
-23 -27 0
-24 -25 0
-24 -26 0
-24 -27 0
-25 -26 0
-25 -27 0
-26 -27 0
22 23 24 25 26 27 0
-28 -29 0
-28 -30 0
-28 -31 0
-28 -32 0
-28 -33 0
-29 -30 0
-29 -31 0
-29 -32 0
-29 -33 0
-30 -31 0
-30 -32 0
-30 -33 0
-31 -32 0
-31 -33 0
-32 -33 0
28 29 30 31 32 33 0
-34 -35 0
-34 -36 0
-34 -37 0
-34 -38 0
-34 -39 0
-35 -36 0
-35 -37 0
-35 -38 0
-35 -39 0
-36 -37 0
-36 -38 0
-36 -39 0
-37 -38 0
-37 -39 0
-38 -39 0
34 35 36 37 38 39 0
-16 -22 0
-16 -28 0
-16 -34 0
-22 -28 0
-22 -34 0
-28 -34 0
-17 -23 0
-17 -29 0
-17 -35 0
-23 -29 0
-23 -35 0
-29 -35 0
-18 -24 0
-18 -30 0
-18 -36 0
-24 -30 0
-24 -36 0
-30 -36 0
-19 -25 0
-19 -31 0
-19 -37 0
-25 -31 0
-25 -37 0
-31 -37 0
-20 -26 0
-20 -32 0
-20 -38 0
-26 -32 0
-26 -38 0
-32 -38 0
-21 -27 0
-21 -33 0
-21 -39 0
-27 -33 0
-27 -39 0
-33 -39 0
1 -16 -23 0
1 -16 -29 0
1 -16 -35 0
1 -22 -17 0
1 -22 -29 0
1 -22 -35 0
1 -28 -17 0
1 -28 -23 0
1 -28 -35 0
1 -34 -17 0
1 -34 -23 0
1 -34 -29 0
2 -16 -24 0
2 -16 -30 0
2 -16 -36 0
2 -22 -18 0
2 -22 -30 0
2 -22 -36 0
2 -28 -18 0
2 -28 -24 0
2 -28 -36 0
2 -34 -18 0
2 -34 -24 0
2 -34 -30 0
3 -16 -25 0
3 -16 -31 0
3 -16 -37 0
3 -22 -19 0
3 -22 -31 0
3 -22 -37 0
3 -28 -19 0
3 -28 -25 0
3 -28 -37 0
3 -34 -19 0
3 -34 -25 0
3 -34 -31 0
4 -16 -26 0
4 -16 -32 0
4 -16 -38 0
4 -22 -20 0
4 -22 -32 0
4 -22 -38 0
4 -28 -20 0
4 -28 -26 0
4 -28 -38 0
4 -34 -20 0
4 -34 -26 0
4 -34 -32 0
5 -16 -27 0
5 -16 -33 0
5 -16 -39 0
5 -22 -21 0
5 -22 -33 0
5 -22 -39 0
5 -28 -21 0
5 -28 -27 0
5 -28 -39 0
5 -34 -21 0
5 -34 -27 0
5 -34 -33 0
6 -17 -24 0
6 -17 -30 0
6 -17 -36 0
6 -23 -18 0
6 -23 -30 0
6 -23 -36 0
6 -29 -18 0
6 -29 -24 0
6 -29 -36 0
6 -35 -18 0
6 -35 -24 0
6 -35 -30 0
7 -17 -25 0
7 -17 -31 0
7 -17 -37 0
7 -23 -19 0
7 -23 -31 0
7 -23 -37 0
7 -29 -19 0
7 -29 -25 0
7 -29 -37 0
7 -35 -19 0
7 -35 -25 0
7 -35 -31 0
8 -17 -26 0
8 -17 -32 0
8 -17 -38 0
8 -23 -20 0
8 -23 -32 0
8 -23 -38 0
8 -29 -20 0
8 -29 -26 0
8 -29 -38 0
8 -35 -20 0
8 -35 -26 0
8 -35 -32 0
9 -17 -27 0
9 -17 -33 0
9 -17 -39 0
9 -23 -21 0
9 -23 -33 0
9 -23 -39 0
9 -29 -21 0
9 -29 -27 0
9 -29 -39 0
9 -35 -21 0
9 -35 -27 0
9 -35 -33 0
10 -18 -25 0
10 -18 -31 0
10 -18 -37 0
10 -24 -19 0
10 -24 -31 0
10 -24 -37 0
10 -30 -19 0
10 -30 -25 0
10 -30 -37 0
10 -36 -19 0
10 -36 -25 0
10 -36 -31 0
11 -18 -26 0
11 -18 -32 0
11 -18 -38 0
11 -24 -20 0
11 -24 -32 0
11 -24 -38 0
11 -30 -20 0
11 -30 -26 0
11 -30 -38 0
11 -36 -20 0
11 -36 -26 0
11 -36 -32 0
12 -18 -27 0
12 -18 -33 0
12 -18 -39 0
12 -24 -21 0
12 -24 -33 0
12 -24 -39 0
12 -30 -21 0
12 -30 -27 0
12 -30 -39 0
12 -36 -21 0
12 -36 -27 0
12 -36 -33 0
13 -19 -26 0
13 -19 -32 0
13 -19 -38 0
13 -25 -20 0
13 -25 -32 0
13 -25 -38 0
13 -31 -20 0
13 -31 -26 0
13 -31 -38 0
13 -37 -20 0
13 -37 -26 0
13 -37 -32 0
14 -19 -27 0
14 -19 -33 0
14 -19 -39 0
14 -25 -21 0
14 -25 -33 0
14 -25 -39 0
14 -31 -21 0
14 -31 -27 0
14 -31 -39 0
14 -37 -21 0
14 -37 -27 0
14 -37 -33 0
15 -20 -27 0
15 -20 -33 0
15 -20 -39 0
15 -26 -21 0
15 -26 -33 0
15 -26 -39 0
15 -32 -21 0
15 -32 -27 0
15 -32 -39 0
15 -38 -21 0
15 -38 -27 0
15 -38 -33 0
-40 -41 0
-40 -42 0
-40 -43 0
-41 -42 0
-41 -43 0
-42 -43 0
40 41 42 43 0
-44 -45 0
-44 -46 0
-44 -47 0
-45 -46 0
-45 -47 0
-46 -47 0
44 45 46 47 0
-48 -49 0
-48 -50 0
-48 -51 0
-49 -50 0
-49 -51 0
-50 -51 0
48 49 50 51 0
-52 -53 0
-52 -54 0
-52 -55 0
-53 -54 0
-53 -55 0
-54 -55 0
52 53 54 55 0
-56 -57 0
-56 -58 0
-56 -59 0
-57 -58 0
-57 -59 0
-58 -59 0
56 57 58 59 0
-60 -61 0
-60 -62 0
-60 -63 0
-61 -62 0
-61 -63 0
-62 -63 0
60 61 62 63 0
-1 -40 -44 0
-1 -41 -45 0
-1 -42 -46 0
-1 -43 -47 0
-2 -40 -48 0
-2 -41 -49 0
-2 -42 -50 0
-2 -43 -51 0
-3 -40 -52 0
-3 -41 -53 0
-3 -42 -54 0
-3 -43 -55 0
-4 -40 -56 0
-4 -41 -57 0
-4 -42 -58 0
-4 -43 -59 0
-5 -40 -60 0
-5 -41 -61 0
-5 -42 -62 0
-5 -43 -63 0
-6 -44 -48 0
-6 -45 -49 0
-6 -46 -50 0
-6 -47 -51 0
-7 -44 -52 0
-7 -45 -53 0
-7 -46 -54 0
-7 -47 -55 0
-8 -44 -56 0
-8 -45 -57 0
-8 -46 -58 0
-8 -47 -59 0
-9 -44 -60 0
-9 -45 -61 0
-9 -46 -62 0
-9 -47 -63 0
-10 -48 -52 0
-10 -49 -53 0
-10 -50 -54 0
-10 -51 -55 0
-11 -48 -56 0
-11 -49 -57 0
-11 -50 -58 0
-11 -51 -59 0
-12 -48 -60 0
-12 -49 -61 0
-12 -50 -62 0
-12 -51 -63 0
-13 -52 -56 0
-13 -53 -57 0
-13 -54 -58 0
-13 -55 -59 0
-14 -52 -60 0
-14 -53 -61 0
-14 -54 -62 0
-14 -55 -63 0
-15 -56 -60 0
-15 -57 -61 0
-15 -58 -62 0
-15 -59 -63 0